c b=2,c=197
p cnf 12 22
2 -4 0
2 -6 0
1 2 -10 0
2 -11 0
-2 4 0
-2 6 0
1 -2 10 0
1 -2 11 0
1 -3 0
1 -5 0
1 -9 0
1 -12 0
-1 2 10 0
2 -12 0
-1 -2 -10 0
-1 -2 12 0
-1 3 0
-1 5 0
-1 9 0
-1 -11 0
-7 0
-8 0
